(set-logic ALL)


(synth-fun top () (_ BitVec 8)
; declare nonterminals
(
	(_stub0_grammar_element (_ BitVec 8))

)
; grammar rules
(
	(_stub0_grammar_element (_ BitVec 8) ((Constant (_ BitVec 8))))

)
)



(check-synth)
